variable        NAME index methane_pair 
variable        infile index data.LJ.mix_3
log             ${NAME}.log
units           real
atom_style      full
boundary        p p p
pair_style      lj/cut 11.19
pair_modify     tail no 
special_bonds   lj 0.0 0.0 0.0
read_data       ${infile}
pair_coeff      * *   0.2941062068 3.73
velocity        all zero linear units box
thermo_style    custom step etotal evdwl etail ke 
thermo          0
fix             1 all nve 
run             0
