#
#  define units
#
clear
units       lj
dimension 3
boundary p p p
atom_style full

#
#  read in initial configuration
#
read_data data.lj.mix.2 

#
#   define mass
#
#   mass of atom type 1
mass        1 1.0
mass        2 1.0

#
#  specify initial velocity of atoms
#  group = all
#  reduced temperature is T = 1.0 = lj-eps/kb 
#  seed for random number generator
#  distribution is gaussian (e.g. Maxwell-Boltzmann)
#
velocity    all create 1.0 87287 dist gaussian

#
#  specify interaction potential
#  pairwise interaction via the Lennard-Jones potential with a cut-off at 2.5 lj-sigma
#
pair_style  lj/cut 2.5
#  specify parameters between atoms of type 1 with an atom of type 1
#  epsilon = 1.0, sigma = 1.0, cutoff = 2.5
pair_coeff  1 1 1.0 1.0 2.5
pair_coeff  2 2 1.0 1.0 2.5

#
# add long-range tail correctio

#
pair_modify tail yes

#
#  specify parameters for neighbor list 
#  rnbr = rcut + 0.3
#
neighbor    0.3 bin


#
# energy minimization
#

minimize          1.0e-4 1.0e-6 1000 1000

#
#  specify thermodynamic properties to be output
#  pe = potential energy
#  ke = kinetic energy
#  etotal = pe + ke
#  temp = temperature
#  press = pressure
#  density = number density
#  output every thousand steps
#  norm = normalize by # of atoms (yes or no)
#
thermo_style custom step pe ke etotal temp press density
thermo 100
thermo_modify norm no

#
#  specify ensemble
#  fixid = 1
#  atoms = all
#  ensemble = nve or nvt
#  
#
fix     1 all nve
#
#  run 1000 steps
#

timestep 0.001

run 1000
#
#  stop fix with given fixid
#  fixid = 1
#
unfix 1
#
#  specify ensemble
#  fixid = 2
#  atoms = all
#  ensemble = nvt
#  temp = temperature
#  initial temperature = 1.0
#  final temperature = 1.0
#  thermostat controller gain = 0.1 (units of time, bigger is less tight control)
#
fix     2 all nvt temp 1.0 1.0 0.1 

run     1000

#
#   save configurations
#   dumpid = 1
#   filename = output.xyz
#
dump    1       all xyz 100 output.xyz
dump_modify 1 element Ar B


run     1000

