# LAMMPS input file generated by MolSSI EEX
units	real
atom_style	full
bond_style	harmonic
angle_style	harmonic
read_data	/Users/daniel/Gits/EEX/eex/tests/scratch/data.trappe_propane_single_molecule
