# LAMMPS input file generated by MolSSI EEX
units	real
atom_style	full
bond_style	harmonic
bond_style	harmonic
angle_style	harmonic
dihedral_style	charmmfsw
dihedral_style	charmmfsw
dihedral_style	charmmfsw
dihedral_style	charmmfsw
read_data	/Users/daniel/Gits/EEX/eex/tests/scratch/test_output
