units		real	
atom_style	full
pair_style	lj/cut/coul/long 12.0 12.0
pair_modify tail yes
kspace_style	ewald 1.0e-4
bond_style	harmonic
angle_style	harmonic
read_data	data.spce
special_bonds   lj/coul 0.0 0.0 0.0
velocity        all zero linear units box
thermo_style    custom step etotal evdwl ecoul ebond eangle elong etail ke
thermo		0
fix		1 all nve
run		0
