units		real	
atom_style	full
read_data	data.spce_2
include spce.forcefield
special_bonds   lj/coul 0.0 0.0 0.0
velocity        all zero linear units box
thermo_style    custom step etotal evdwl ecoul ebond eangle elong etail ke
thermo		0
fix		1 all nve
run		0
